(set-info :smt-lib-version 2.6)
(set-logic QF_FP)
(set-info :source |
Generated by: Chenqi Cui
Generated on: 2025-12-26
Generator: AutoSMTGen
Application: Generating SMT constraints with small solution spaces to make them challenging for SMT solvers
Target solver: Z3, CVC5, Bitwuzla
|)
(set-info :license "https://creativecommons.org/licenses/by/4.0/")
(set-info :category "industrial")
(set-info :status sat)
; benchmark generated from python API

(declare-fun x8 () (_ FloatingPoint 11 53))
(declare-fun x7 () (_ FloatingPoint 11 53))
(declare-fun x6 () (_ FloatingPoint 11 53))
(declare-fun x5 () (_ FloatingPoint 11 53))
(declare-fun x4 () (_ FloatingPoint 11 53))
(declare-fun x3 () (_ FloatingPoint 11 53))
(declare-fun x2 () (_ FloatingPoint 11 53))
(declare-fun x1 () (_ FloatingPoint 11 53))
(declare-fun x0 () (_ FloatingPoint 11 53))
(assert
 (let ((?x19 (fp.add roundNearestTiesToEven (fp.mul roundNearestTiesToEven (fp #b0 #b10000000101 #x47549ddfee7df) x0) (fp.mul roundNearestTiesToEven (fp #b0 #b10000000101 #x33529b9220c39) x1))))
 (let ((?x22 (fp.add roundNearestTiesToEven ?x19 (fp.mul roundNearestTiesToEven (fp #b1 #b10000000101 #x6633fdd66b65b) x2))))
 (let ((?x25 (fp.add roundNearestTiesToEven ?x22 (fp.mul roundNearestTiesToEven (fp #b0 #b10000000011 #xf9bacc449ea70) x3))))
 (let ((?x28 (fp.add roundNearestTiesToEven ?x25 (fp.mul roundNearestTiesToEven (fp #b1 #b10000000101 #x4b48239962480) x4))))
 (let ((?x31 (fp.add roundNearestTiesToEven ?x28 (fp.mul roundNearestTiesToEven (fp #b1 #b10000000100 #x8ee46a2a5f832) x5))))
 (let ((?x34 (fp.add roundNearestTiesToEven ?x31 (fp.mul roundNearestTiesToEven (fp #b1 #b10000000001 #x077c19d9c5329) x6))))
 (let ((?x37 (fp.add roundNearestTiesToEven ?x34 (fp.mul roundNearestTiesToEven (fp #b1 #b10000000010 #x0299273dd6014) x7))))
 (let ((?x40 (fp.add roundNearestTiesToEven ?x37 (fp.mul roundNearestTiesToEven (fp #b0 #b10000000101 #x9d5e975d9a1fa) x8))))
 (fp.leq ?x40 (fp #b1 #b10000000100 #xc58fcdc3b7d43)))))))))))
(assert
 (let ((?x64 (fp.add roundNearestTiesToEven (fp.mul roundNearestTiesToEven (fp #b0 #b10000000101 #x8284d504d2163) x0) (fp.mul roundNearestTiesToEven (fp #b1 #b10000000100 #xa909564c41a16) x1))))
 (let ((?x67 (fp.add roundNearestTiesToEven ?x64 (fp.mul roundNearestTiesToEven (fp #b0 #b10000000100 #xc2c7af2101077) x2))))
 (let ((?x70 (fp.add roundNearestTiesToEven ?x67 (fp.mul roundNearestTiesToEven (fp #b1 #b10000000101 #x1c40c03620912) x3))))
 (let ((?x73 (fp.add roundNearestTiesToEven ?x70 (fp.mul roundNearestTiesToEven (fp #b1 #b10000000100 #x63307c803008c) x4))))
 (let ((?x76 (fp.add roundNearestTiesToEven ?x73 (fp.mul roundNearestTiesToEven (fp #b1 #b10000000100 #xeec74521319f8) x5))))
 (let ((?x79 (fp.add roundNearestTiesToEven ?x76 (fp.mul roundNearestTiesToEven (fp #b0 #b10000000100 #x310e11b0b0bcf) x6))))
 (let ((?x82 (fp.add roundNearestTiesToEven ?x79 (fp.mul roundNearestTiesToEven (fp #b0 #b10000000100 #xf3ff142b09b08) x7))))
 (let ((?x85 (fp.add roundNearestTiesToEven ?x82 (fp.mul roundNearestTiesToEven (fp #b1 #b10000000101 #x4b3f018c4f509) x8))))
 (fp.leq ?x85 (fp #b1 #b10000000011 #xcaa7c0047a5a1)))))))))))
(assert
 (let ((?x92 (fp.add roundNearestTiesToEven (fp.mul roundNearestTiesToEven (fp #b0 #b10000000101 #x46911b398b1a2) x0) (fp.mul roundNearestTiesToEven (fp #b1 #b10000000101 #x300af667036bb) x1))))
 (let ((?x95 (fp.add roundNearestTiesToEven ?x92 (fp.mul roundNearestTiesToEven (fp #b0 #b10000000101 #x4068dcb63d13e) x2))))
 (let ((?x98 (fp.add roundNearestTiesToEven ?x95 (fp.mul roundNearestTiesToEven (fp #b1 #b10000000101 #x6879ed340dc1e) x3))))
 (let ((?x101 (fp.add roundNearestTiesToEven ?x98 (fp.mul roundNearestTiesToEven (fp #b0 #b10000000100 #xe0b1a6da18d22) x4))))
 (let ((?x104 (fp.add roundNearestTiesToEven ?x101 (fp.mul roundNearestTiesToEven (fp #b1 #b10000000100 #x6dc501d5f1f04) x5))))
 (let ((?x107 (fp.add roundNearestTiesToEven ?x104 (fp.mul roundNearestTiesToEven (fp #b1 #b10000000100 #x3afa60c1fa22d) x6))))
 (let ((?x110 (fp.add roundNearestTiesToEven ?x107 (fp.mul roundNearestTiesToEven (fp #b1 #b10000000011 #xe4bf0d7b5905b) x7))))
 (let ((?x113 (fp.add roundNearestTiesToEven ?x110 (fp.mul roundNearestTiesToEven (fp #b0 #b10000000011 #x87062b4621e14) x8))))
 (fp.leq ?x113 (fp #b1 #b10000000101 #x3392d57c18fda)))))))))))
(assert
 (let ((?x120 (fp.add roundNearestTiesToEven (fp.mul roundNearestTiesToEven (fp #b0 #b10000000100 #x5cbb24b669407) x0) (fp.mul roundNearestTiesToEven (fp #b0 #b10000000101 #x21d0ea2ed41f7) x1))))
 (let ((?x123 (fp.add roundNearestTiesToEven ?x120 (fp.mul roundNearestTiesToEven (fp #b0 #b10000000101 #x46f0243c817d6) x2))))
 (let ((?x126 (fp.add roundNearestTiesToEven ?x123 (fp.mul roundNearestTiesToEven (fp #b1 #b10000000100 #xd8980ed653d12) x3))))
 (let ((?x129 (fp.add roundNearestTiesToEven ?x126 (fp.mul roundNearestTiesToEven (fp #b0 #b10000000100 #xf0fdd788f8eea) x4))))
 (let ((?x132 (fp.add roundNearestTiesToEven ?x129 (fp.mul roundNearestTiesToEven (fp #b0 #b10000000100 #x7e61997a9c4fa) x5))))
 (let ((?x135 (fp.add roundNearestTiesToEven ?x132 (fp.mul roundNearestTiesToEven (fp #b0 #b10000000101 #x427549d43140a) x6))))
 (let ((?x138 (fp.add roundNearestTiesToEven ?x135 (fp.mul roundNearestTiesToEven (fp #b0 #b10000000001 #x7fe4fcae1e864) x7))))
 (let ((?x141 (fp.add roundNearestTiesToEven ?x138 (fp.mul roundNearestTiesToEven (fp #b1 #b10000000100 #x209b73c914653) x8))))
 (fp.leq ?x141 (fp #b0 #b10000000100 #xdc58b051fd1ad)))))))))))
(assert
 (let ((?x148 (fp.add roundNearestTiesToEven (fp.mul roundNearestTiesToEven (fp #b1 #b10000000100 #xbbc68215a0b30) x0) (fp.mul roundNearestTiesToEven (fp #b0 #b10000000100 #x419da6d46c5fe) x1))))
 (let ((?x151 (fp.add roundNearestTiesToEven ?x148 (fp.mul roundNearestTiesToEven (fp #b1 #b10000000101 #x3a681aac4e4a8) x2))))
 (let ((?x154 (fp.add roundNearestTiesToEven ?x151 (fp.mul roundNearestTiesToEven (fp #b1 #b10000000010 #x4cbe1d3435162) x3))))
 (let ((?x157 (fp.add roundNearestTiesToEven ?x154 (fp.mul roundNearestTiesToEven (fp #b0 #b10000000101 #x89af4abd2a98b) x4))))
 (let ((?x160 (fp.add roundNearestTiesToEven ?x157 (fp.mul roundNearestTiesToEven (fp #b0 #b10000000101 #x0c7b46fca5046) x5))))
 (let ((?x163 (fp.add roundNearestTiesToEven ?x160 (fp.mul roundNearestTiesToEven (fp #b1 #b10000000101 #x57620191868a2) x6))))
 (let ((?x166 (fp.add roundNearestTiesToEven ?x163 (fp.mul roundNearestTiesToEven (fp #b1 #b10000000101 #x75fec6d965021) x7))))
 (let ((?x169 (fp.add roundNearestTiesToEven ?x166 (fp.mul roundNearestTiesToEven (fp #b1 #b10000000011 #x6c2be944fbb6e) x8))))
 (fp.leq ?x169 (fp #b0 #b10000000100 #x640f81ab55a8a)))))))))))
(assert
 (let ((?x176 (fp.add roundNearestTiesToEven (fp.mul roundNearestTiesToEven (fp #b1 #b10000000011 #x78a01084ebbd7) x0) (fp.mul roundNearestTiesToEven (fp #b1 #b10000000100 #x36fb3a720f523) x1))))
 (let ((?x179 (fp.add roundNearestTiesToEven ?x176 (fp.mul roundNearestTiesToEven (fp #b0 #b10000000101 #x541d949cc429d) x2))))
 (let ((?x182 (fp.add roundNearestTiesToEven ?x179 (fp.mul roundNearestTiesToEven (fp #b0 #b10000000011 #x5c9d259ea9f2b) x3))))
 (let ((?x185 (fp.add roundNearestTiesToEven ?x182 (fp.mul roundNearestTiesToEven (fp #b0 #b10000000100 #x64e8a2e6265a1) x4))))
 (let ((?x188 (fp.add roundNearestTiesToEven ?x185 (fp.mul roundNearestTiesToEven (fp #b1 #b10000000100 #xdf72cad4ecfa2) x5))))
 (let ((?x191 (fp.add roundNearestTiesToEven ?x188 (fp.mul roundNearestTiesToEven (fp #b0 #b10000000101 #x69e9e9f9e2f89) x6))))
 (let ((?x194 (fp.add roundNearestTiesToEven ?x191 (fp.mul roundNearestTiesToEven (fp #b1 #b10000000100 #x1b2f45f4d5069) x7))))
 (let ((?x197 (fp.add roundNearestTiesToEven ?x194 (fp.mul roundNearestTiesToEven (fp #b0 #b10000000100 #xe99d67147e685) x8))))
 (fp.leq ?x197 (fp #b0 #b10000000101 #x79c7457014b39)))))))))))
(assert
 (let ((?x204 (fp.add roundNearestTiesToEven (fp.mul roundNearestTiesToEven (fp #b1 #b10000000011 #xbde60ead3e3c1) x0) (fp.mul roundNearestTiesToEven (fp #b0 #b10000000010 #x0cc2f28f6f45a) x1))))
 (let ((?x207 (fp.add roundNearestTiesToEven ?x204 (fp.mul roundNearestTiesToEven (fp #b1 #b10000000101 #x0be7d1965910c) x2))))
 (let ((?x210 (fp.add roundNearestTiesToEven ?x207 (fp.mul roundNearestTiesToEven (fp #b0 #b10000000100 #xa6971b6e7b593) x3))))
 (let ((?x213 (fp.add roundNearestTiesToEven ?x210 (fp.mul roundNearestTiesToEven (fp #b0 #b10000000011 #xbd87f1b9cf581) x4))))
 (let ((?x216 (fp.add roundNearestTiesToEven ?x213 (fp.mul roundNearestTiesToEven (fp #b1 #b10000000100 #xc562b14083767) x5))))
 (let ((?x219 (fp.add roundNearestTiesToEven ?x216 (fp.mul roundNearestTiesToEven (fp #b1 #b10000000011 #xda2f68bdad83f) x6))))
 (let ((?x222 (fp.add roundNearestTiesToEven ?x219 (fp.mul roundNearestTiesToEven (fp #b0 #b10000000101 #x1caabe0be5674) x7))))
 (let ((?x225 (fp.add roundNearestTiesToEven ?x222 (fp.mul roundNearestTiesToEven (fp #b0 #b10000000001 #xb5dd27c5e30ec) x8))))
 (fp.leq ?x225 (fp #b0 #b10000000100 #x498fec5cb10ad)))))))))))
(assert
 (let ((?x232 (fp.add roundNearestTiesToEven (fp.mul roundNearestTiesToEven (fp #b0 #b10000000011 #x39b9711e30f81) x0) (fp.mul roundNearestTiesToEven (fp #b1 #b10000000100 #x897137cd0b767) x1))))
 (let ((?x235 (fp.add roundNearestTiesToEven ?x232 (fp.mul roundNearestTiesToEven (fp #b1 #b10000000101 #x5f3a64e126896) x2))))
 (let ((?x238 (fp.add roundNearestTiesToEven ?x235 (fp.mul roundNearestTiesToEven (fp #b1 #b10000000100 #xf7a1dcce9f788) x3))))
 (let ((?x241 (fp.add roundNearestTiesToEven ?x238 (fp.mul roundNearestTiesToEven (fp #b1 #b10000000100 #xa13f1fd2d09eb) x4))))
 (let ((?x244 (fp.add roundNearestTiesToEven ?x241 (fp.mul roundNearestTiesToEven (fp #b1 #b10000000001 #x7959dc3aa1e06) x5))))
 (let ((?x247 (fp.add roundNearestTiesToEven ?x244 (fp.mul roundNearestTiesToEven (fp #b1 #b10000000101 #x27936c378e64b) x6))))
 (let ((?x250 (fp.add roundNearestTiesToEven ?x247 (fp.mul roundNearestTiesToEven (fp #b0 #b10000000011 #xda87d658e7fa3) x7))))
 (let ((?x253 (fp.add roundNearestTiesToEven ?x250 (fp.mul roundNearestTiesToEven (fp #b0 #b10000000011 #x5e3e24dff3b03) x8))))
 (fp.leq ?x253 (fp #b0 #b10000000010 #xa5349e048586d)))))))))))
(assert
 (let ((?x260 (fp.add roundNearestTiesToEven (fp.mul roundNearestTiesToEven (fp #b1 #b10000000100 #x765a2995b987f) x0) (fp.mul roundNearestTiesToEven (fp #b1 #b10000000100 #xc834037420a59) x1))))
 (let ((?x263 (fp.add roundNearestTiesToEven ?x260 (fp.mul roundNearestTiesToEven (fp #b1 #b10000000100 #x0d6396367ceb0) x2))))
 (let ((?x266 (fp.add roundNearestTiesToEven ?x263 (fp.mul roundNearestTiesToEven (fp #b1 #b10000000101 #x6821371638086) x3))))
 (let ((?x269 (fp.add roundNearestTiesToEven ?x266 (fp.mul roundNearestTiesToEven (fp #b1 #b10000000100 #xcb1140b295544) x4))))
 (let ((?x272 (fp.add roundNearestTiesToEven ?x269 (fp.mul roundNearestTiesToEven (fp #b1 #b10000000100 #x439baab7ec2e9) x5))))
 (let ((?x275 (fp.add roundNearestTiesToEven ?x272 (fp.mul roundNearestTiesToEven (fp #b1 #b10000000101 #x2502622807021) x6))))
 (let ((?x278 (fp.add roundNearestTiesToEven ?x275 (fp.mul roundNearestTiesToEven (fp #b0 #b10000000011 #x3800ad5599c72) x7))))
 (let ((?x281 (fp.add roundNearestTiesToEven ?x278 (fp.mul roundNearestTiesToEven (fp #b1 #b10000000101 #x2d5983080dcb1) x8))))
 (fp.leq ?x281 (fp #b0 #b10000000100 #x56952be88707b)))))))))))
(assert
 (let ((?x288 (fp.add roundNearestTiesToEven (fp.mul roundNearestTiesToEven (fp #b0 #b10000000101 #x4c41776492ac4) x0) (fp.mul roundNearestTiesToEven (fp #b1 #b10000000101 #x6fb5e51beddae) x1))))
 (let ((?x291 (fp.add roundNearestTiesToEven ?x288 (fp.mul roundNearestTiesToEven (fp #b0 #b10000000100 #x91635b5cc466b) x2))))
 (let ((?x294 (fp.add roundNearestTiesToEven ?x291 (fp.mul roundNearestTiesToEven (fp #b0 #b10000000101 #x97082e52d6def) x3))))
 (let ((?x297 (fp.add roundNearestTiesToEven ?x294 (fp.mul roundNearestTiesToEven (fp #b0 #b10000000000 #x8cc8b2257509a) x4))))
 (let ((?x300 (fp.add roundNearestTiesToEven ?x297 (fp.mul roundNearestTiesToEven (fp #b0 #b10000000100 #x79aa6575c7278) x5))))
 (let ((?x303 (fp.add roundNearestTiesToEven ?x300 (fp.mul roundNearestTiesToEven (fp #b1 #b10000000011 #x43c1bf6602aab) x6))))
 (let ((?x306 (fp.add roundNearestTiesToEven ?x303 (fp.mul roundNearestTiesToEven (fp #b0 #b10000000101 #x0495357ee1e51) x7))))
 (let ((?x309 (fp.add roundNearestTiesToEven ?x306 (fp.mul roundNearestTiesToEven (fp #b0 #b10000000101 #x4e0517b646790) x8))))
 (fp.leq ?x309 (fp #b1 #b10000000100 #x0b1a1e2c6b2bc)))))))))))
(assert
 (let ((?x316 (fp.add roundNearestTiesToEven (fp.mul roundNearestTiesToEven (fp #b0 #b10000000101 #x36f745bf7c708) x0) (fp.mul roundNearestTiesToEven (fp #b1 #b10000000100 #x2398a91708fa9) x1))))
 (let ((?x319 (fp.add roundNearestTiesToEven ?x316 (fp.mul roundNearestTiesToEven (fp #b1 #b10000000101 #x4ce7a74cea44c) x2))))
 (let ((?x322 (fp.add roundNearestTiesToEven ?x319 (fp.mul roundNearestTiesToEven (fp #b1 #b10000000101 #x174b70b0dc1fd) x3))))
 (let ((?x325 (fp.add roundNearestTiesToEven ?x322 (fp.mul roundNearestTiesToEven (fp #b0 #b10000000100 #x64731e79b324a) x4))))
 (let ((?x328 (fp.add roundNearestTiesToEven ?x325 (fp.mul roundNearestTiesToEven (fp #b0 #b10000000101 #x5ab36b908b91f) x5))))
 (let ((?x331 (fp.add roundNearestTiesToEven ?x328 (fp.mul roundNearestTiesToEven (fp #b0 #b10000000100 #x2426a683dbe02) x6))))
 (let ((?x334 (fp.add roundNearestTiesToEven ?x331 (fp.mul roundNearestTiesToEven (fp #b1 #b10000000011 #x6907fdc907b66) x7))))
 (let ((?x337 (fp.add roundNearestTiesToEven ?x334 (fp.mul roundNearestTiesToEven (fp #b1 #b10000000101 #x811fe0ee48e2b) x8))))
 (fp.leq ?x337 (fp #b0 #b10000000010 #xaf9ee8ee43f8e)))))))))))
(assert
 (let ((?x344 (fp.add roundNearestTiesToEven (fp.mul roundNearestTiesToEven (fp #b1 #b10000000100 #x3e713e8e7bded) x0) (fp.mul roundNearestTiesToEven (fp #b0 #b10000000101 #x6fb2320617a46) x1))))
 (let ((?x347 (fp.add roundNearestTiesToEven ?x344 (fp.mul roundNearestTiesToEven (fp #b0 #b10000000101 #x621e9ae202542) x2))))
 (let ((?x350 (fp.add roundNearestTiesToEven ?x347 (fp.mul roundNearestTiesToEven (fp #b0 #b10000000010 #xc75db4d70241f) x3))))
 (let ((?x353 (fp.add roundNearestTiesToEven ?x350 (fp.mul roundNearestTiesToEven (fp #b1 #b10000000100 #x93186a1aebcb6) x4))))
 (let ((?x356 (fp.add roundNearestTiesToEven ?x353 (fp.mul roundNearestTiesToEven (fp #b1 #b10000000011 #xb65273673e43d) x5))))
 (let ((?x359 (fp.add roundNearestTiesToEven ?x356 (fp.mul roundNearestTiesToEven (fp #b0 #b10000000101 #x899279fba54fa) x6))))
 (let ((?x362 (fp.add roundNearestTiesToEven ?x359 (fp.mul roundNearestTiesToEven (fp #b1 #b10000000100 #x17b30f0bee140) x7))))
 (let ((?x365 (fp.add roundNearestTiesToEven ?x362 (fp.mul roundNearestTiesToEven (fp #b1 #b10000000011 #x8862e81b69700) x8))))
 (fp.leq ?x365 (fp #b0 #b10000000011 #x8a9eb358b8977)))))))))))
(assert
 (let ((?x372 (fp.add roundNearestTiesToEven (fp.mul roundNearestTiesToEven (fp #b1 #b10000000101 #x0946e9a59b2e5) x0) (fp.mul roundNearestTiesToEven (fp #b0 #b10000000101 #x1ca8d5c0b150e) x1))))
(let ((?x375 (fp.add roundNearestTiesToEven ?x372 (fp.mul roundNearestTiesToEven (fp #b1 #b10000000101 #x338a80f7761b1) x2))))
(let ((?x378 (fp.add roundNearestTiesToEven ?x375 (fp.mul roundNearestTiesToEven (fp #b1 #b10000000101 #x2c0aeb5a69368) x3))))
(let ((?x381 (fp.add roundNearestTiesToEven ?x378 (fp.mul roundNearestTiesToEven (fp #b1 #b10000000100 #xc1b97b8205350) x4))))
(let ((?x384 (fp.add roundNearestTiesToEven ?x381 (fp.mul roundNearestTiesToEven (fp #b0 #b10000000100 #x1e59f6df79014) x5))))
(let ((?x387 (fp.add roundNearestTiesToEven ?x384 (fp.mul roundNearestTiesToEven (fp #b1 #b10000000100 #x011f624a6723e) x6))))
(let ((?x390 (fp.add roundNearestTiesToEven ?x387 (fp.mul roundNearestTiesToEven (fp #b0 #b10000000101 #x1b8e642555731) x7))))
(let ((?x393 (fp.add roundNearestTiesToEven ?x390 (fp.mul roundNearestTiesToEven (fp #b1 #b10000000100 #x28c4eccc9336e) x8))))
(fp.leq ?x393 (fp #b1 #b10000000101 #x51b8bc7e0304f)))))))))))
(check-sat)
(exit)
